SECTION Graph
Nodes 169
Edges 280
E 1 2 5
E 2 3 5
E 3 4 5
E 4 5 5
E 5 6 5
E 6 7 5
E 7 8 5
E 8 9 5
E 9 10 5
E 10 11 5
E 11 12 5
E 12 13 5
E 13 14 5
E 14 15 5
E 15 16 5
E 16 17 5
E 17 18 5
E 18 19 5
E 19 20 5
E 20 21 5
E 21 22 5
E 22 23 5
E 23 24 5
E 24 25 5
E 25 26 5
E 1 27 13
E 2 28 13
E 4 29 13
E 5 30 13
E 6 31 13
E 7 32 13
E 8 33 13
E 9 34 13
E 10 35 13
E 11 36 13
E 12 37 13
E 13 38 13
E 15 39 13
E 16 40 13
E 17 41 13
E 18 42 13
E 19 43 13
E 20 44 13
E 21 45 13
E 22 46 13
E 23 47 13
E 24 48 13
E 25 49 13
E 26 50 13
E 27 28 5
E 29 30 5
E 30 31 5
E 31 32 5
E 32 33 5
E 33 34 5
E 34 35 5
E 35 36 5
E 36 37 5
E 37 38 5
E 39 40 5
E 40 41 5
E 41 42 5
E 42 43 5
E 43 44 5
E 44 45 5
E 45 46 5
E 46 47 5
E 47 48 5
E 48 49 5
E 49 50 5
E 27 51 13
E 28 52 13
E 29 53 13
E 30 54 13
E 31 55 13
E 32 56 13
E 33 57 13
E 34 58 13
E 35 59 13
E 36 60 13
E 37 61 13
E 38 62 13
E 39 63 13
E 40 64 13
E 41 65 13
E 42 66 13
E 43 67 13
E 46 70 13
E 47 71 13
E 48 72 13
E 49 73 13
E 50 74 13
E 51 52 5
E 53 54 5
E 54 55 5
E 55 56 5
E 56 57 5
E 57 58 5
E 58 59 5
E 59 60 5
E 60 61 5
E 61 62 5
E 63 64 5
E 64 65 5
E 65 66 5
E 66 67 5
E 67 68 5
E 68 69 5
E 69 70 5
E 70 71 5
E 71 72 5
E 72 73 5
E 73 74 5
E 51 75 13
E 52 76 13
E 53 78 13
E 54 79 13
E 55 80 13
E 56 81 13
E 57 82 13
E 58 83 13
E 59 84 13
E 60 85 13
E 61 86 13
E 62 87 13
E 63 89 13
E 64 90 13
E 65 91 13
E 66 92 13
E 67 93 13
E 68 94 13
E 69 95 13
E 70 96 13
E 71 97 13
E 72 98 13
E 73 99 13
E 74 100 13
E 75 76 5
E 76 77 5
E 77 78 5
E 78 79 5
E 79 80 5
E 80 81 5
E 81 82 5
E 82 83 5
E 83 84 5
E 84 85 5
E 85 86 5
E 86 87 5
E 87 88 5
E 88 89 5
E 89 90 5
E 90 91 5
E 91 92 5
E 92 93 5
E 93 94 5
E 94 95 5
E 95 96 5
E 96 97 5
E 97 98 5
E 98 99 5
E 99 100 5
E 75 101 13
E 76 102 13
E 77 103 13
E 78 104 13
E 82 105 13
E 83 106 13
E 84 107 13
E 85 108 13
E 86 109 13
E 87 110 13
E 88 111 13
E 89 112 13
E 90 113 13
E 91 114 13
E 92 115 13
E 93 116 13
E 94 117 13
E 95 118 13
E 96 119 13
E 97 120 13
E 98 121 13
E 99 122 13
E 100 123 13
E 101 102 5
E 102 103 5
E 103 104 5
E 105 106 5
E 106 107 5
E 107 108 5
E 108 109 5
E 109 110 5
E 110 111 5
E 111 112 5
E 112 113 5
E 113 114 5
E 114 115 5
E 115 116 5
E 116 117 5
E 117 118 5
E 118 119 5
E 119 120 5
E 120 121 5
E 121 122 5
E 122 123 5
E 101 124 13
E 104 127 13
E 105 128 13
E 106 129 13
E 107 130 13
E 110 133 13
E 111 134 13
E 112 135 13
E 113 136 13
E 114 137 13
E 115 138 13
E 116 139 13
E 119 142 13
E 122 145 13
E 123 146 13
E 124 125 5
E 125 126 5
E 126 127 5
E 128 129 5
E 129 130 5
E 130 131 5
E 131 132 5
E 132 133 5
E 133 134 5
E 134 135 5
E 135 136 5
E 136 137 5
E 137 138 5
E 138 139 5
E 139 140 5
E 140 141 5
E 141 142 5
E 142 143 5
E 143 144 5
E 144 145 5
E 145 146 5
E 124 147 13
E 125 148 13
E 126 149 13
E 127 150 13
E 128 151 13
E 129 152 13
E 130 153 13
E 131 154 13
E 132 155 13
E 133 156 13
E 134 157 13
E 135 158 13
E 136 159 13
E 137 160 13
E 140 163 13
E 143 166 13
E 146 169 13
E 147 148 5
E 148 149 5
E 149 150 5
E 151 152 5
E 152 153 5
E 153 154 5
E 154 155 5
E 155 156 5
E 156 157 5
E 157 158 5
E 158 159 5
E 159 160 5
E 160 161 5
E 161 162 5
E 162 163 5
E 163 164 5
E 164 165 5
E 165 166 5
E 166 167 5
E 167 168 5
E 168 169 5
END

SECTION Terminals
Terminals 10
T 14
T 31
T 43
T 101
T 107
T 116
T 119
T 137
T 140
T 143
END

EOF
